
x = 1;
y = 50;
c = 1403;
n = 50;
w = [34 85 14 95 9 77 48 36 3 21 18 51 100 36 59 24 55 17 6 14 56 37 57 13 17 96 45 54 97 53 6 96 63 18 50 72 42 100 21 23 61 88 64 2 11 73 17 41 40 73];
p = [56 41 64 54 41 34 9 38 71 72 14 37 27 2 79 29 33 65 70 20 57 63 75 14 43 99 85 76 54 2 8 92 25 14 9 85 77 48 68 24 18 45 4 15 41 97 79 77 25 10];
s = [1 1 1 1 1 1 1 1 1 1 1 1 1 1 1 1 1 1 1 1 1 1 1 1 1 1 1 1 1 1 1 1 1 1 1 1 1 1 1 1 1 1 1 1 1 1 1 1 1 1];

